<number of tasks>
50

<cycle time>
1000

<order strength>
0.597


<task times>
1 261
2 249
3 116
4 98
5 286
6 369
7 127
8 511
9 297
10 348
11 476
12 456
13 229
14 129
15 529
16 24
17 167
18 322
19 54
20 41
21 172
22 47
23 66
24 64
25 215
26 154
27 190
28 486
29 202
30 116
31 178
32 198
33 26
34 53
35 43
36 66
37 25
38 83
39 188
40 96
41 478
42 116
43 118
44 278
45 69
46 227
47 91
48 87
49 67
50 21

<precedence relations>
1,42
2,3
2,4
2,5
3,29
4,9
4,12
5,6
5,7
5,8
5,10
5,11
5,12
6,13
7,13
8,13
9,13
10,42
11,16
12,13
12,14
12,15
13,17
13,18
13,19
13,20
13,23
14,22
14,31
15,21
16,21
17,42
18,29
19,29
20,24
20,25
20,26
20,28
21,24
21,25
21,26
21,27
22,24
22,25
22,36
23,26
23,41
24,29
25,30
25,38
26,30
26,31
27,28
28,42
29,32
29,33
29,34
29,35
29,43
30,37
31,36
31,38
32,38
32,44
33,42
34,38
34,39
34,41
35,42
36,42
36,50
37,39
37,40
38,42
40,43
41,44
41,45
42,46
42,47
42,48
42,49
44,50
45,50

<end>
